30 1000000000
792520535 528145579 682850171 79476920 178914057 180053263 538638086 433143781 299775597 723428544 177615223 959893339 639448861 506106572 807471834 42398440 347390133 65783782 988164990 606389825 877178711 513188067 609539702 558894975 271129128 956393790 981348376 608410525 61890513 991440277
754873682 -128150752 929595294 -278890071 92996514 -892546118 -319483773 645071516 -101025292 470992605 -740050209 876833593 103964086 823395362 937096378 470645919 -746341591 246834403 374544981 -145804227 -65395536 -126929228 694426122 -921831511 311191243 847955910 -215536927 266225078 435817346 777245466
